c A SAT instance generated from a 3-CNF formula that had 60 clauses and 10 variables
p cnf 10 60
4 -7 -6 0
-6 -8 -4 0
-1 2 4 0
10 -8 7 0
-7 -9 -5 0
3 6 2 0
-3 -2 -1 0
5 -10 1 0
-3 2 -7 0
6 4 1 0
5 -1 -8 0
9 10 -7 0
10 -6 -2 0
4 -7 9 0
5 9 -1 0
-1 7 -3 0
1 7 2 0
-3 8 -5 0
-5 -7 2 0
6 -5 -3 0
-2 3 -6 0
1 -6 3 0
-6 2 -5 0
9 1 3 0
3 5 6 0
-6 4 -3 0
-10 4 -7 0
5 -1 7 0
7 -9 6 0
4 10 -7 0
-6 -3 1 0
-7 9 -8 0
-10 -5 4 0
8 -10 -9 0
-2 -9 7 0
4 -1 10 0
8 4 10 0
10 8 7 0
3 4 -2 0
1 6 10 0
-3 -6 9 0
-8 4 6 0
-10 -3 2 0
7 -6 -5 0
-8 4 6 0
-4 1 3 0
2 3 -4 0
-4 3 -8 0
8 -7 4 0
7 -4 -9 0
-3 4 10 0
9 -6 -5 0
-4 -7 -3 0
2 -8 6 0
-7 -4 5 0
-6 -2 1 0
6 2 3 0
-8 5 -2 0
-2 -8 7 0
9 6 5 0
%
0

7 80 56 52 35 69 69 73 7 29
